c nIsolatedPIs 6
c maxPI 26
p cnf 122 289
c gate 27 -7 20 0
-7 -27 0
20 -27 0
7 -20 27 0
c gate 28 6 -19 0
6 -28 0
-19 -28 0
-6 19 28 0
c gate 29 -6 19 0
-6 -29 0
19 -29 0
6 -19 29 0
c gate 30 -5 18 0
-5 -30 0
18 -30 0
5 -18 30 0
c gate 31 -1 14 0
-1 -31 0
14 -31 0
1 -14 31 0
c gate 32 -30 -31 0
-30 -32 0
-31 -32 0
30 31 32 0
c gate 33 5 -18 0
5 -33 0
-18 -33 0
-5 18 33 0
c gate 34 -32 -33 0
-32 -34 0
-33 -34 0
32 33 34 0
c gate 35 -29 -34 0
-29 -35 0
-34 -35 0
29 34 35 0
c gate 36 -28 -35 0
-28 -36 0
-35 -36 0
28 35 36 0
c gate 37 -27 -36 0
-27 -37 0
-36 -37 0
27 36 37 0
c gate 38 7 -20 0
7 -38 0
-20 -38 0
-7 20 38 0
c gate 39 8 -21 0
8 -39 0
-21 -39 0
-8 21 39 0
c gate 40 -38 -39 0
-38 -40 0
-39 -40 0
38 39 40 0
c gate 41 -37 40 0
-37 -41 0
40 -41 0
37 -40 41 0
c gate 42 9 -22 0
9 -42 0
-22 -42 0
-9 22 42 0
c gate 43 -9 22 0
-9 -43 0
22 -43 0
9 -22 43 0
c gate 44 -42 -43 0
-42 -44 0
-43 -44 0
42 43 44 0
c gate 45 -8 21 0
-8 -45 0
21 -45 0
8 -21 45 0
c gate 46 44 -45 0
44 -46 0
-45 -46 0
-44 45 46 0
c gate 47 -41 46 0
-41 -47 0
46 -47 0
41 -46 47 0
c gate 48 -8 -21 0
-8 -48 0
-21 -48 0
8 21 48 0
c gate 49 7 20 0
7 -49 0
20 -49 0
-7 -20 49 0
c gate 50 8 21 0
8 -50 0
21 -50 0
-8 -21 50 0
c gate 51 -49 -50 0
-49 -51 0
-50 -51 0
49 50 51 0
c gate 52 5 18 0
5 -52 0
18 -52 0
-5 -18 52 0
c gate 53 6 19 0
6 -53 0
19 -53 0
-6 -19 53 0
c gate 54 1 14 0
1 -54 0
14 -54 0
-1 -14 54 0
c gate 55 -53 -54 0
-53 -55 0
-54 -55 0
53 54 55 0
c gate 56 -52 55 0
-52 -56 0
55 -56 0
52 -55 56 0
c gate 57 -7 -20 0
-7 -57 0
-20 -57 0
7 20 57 0
c gate 58 -6 -19 0
-6 -58 0
-19 -58 0
6 19 58 0
c gate 59 -57 -58 0
-57 -59 0
-58 -59 0
57 58 59 0
c gate 60 -56 59 0
-56 -60 0
59 -60 0
56 -59 60 0
c gate 61 51 -60 0
51 -61 0
-60 -61 0
-51 60 61 0
c gate 62 -48 -61 0
-48 -62 0
-61 -62 0
48 61 62 0
c gate 63 -44 -62 0
-44 -63 0
-62 -63 0
44 62 63 0
c gate 64 -10 -23 0
-10 -64 0
-23 -64 0
10 23 64 0
c gate 65 10 23 0
10 -65 0
23 -65 0
-10 -23 65 0
c gate 66 -9 -22 0
-9 -66 0
-22 -66 0
9 22 66 0
c gate 67 -65 66 0
-65 -67 0
66 -67 0
65 -66 67 0
c gate 68 -64 67 0
-64 -68 0
67 -68 0
64 -67 68 0
c gate 69 3 16 0
3 -69 0
16 -69 0
-3 -16 69 0
c gate 70 -4 -17 0
-4 -70 0
-17 -70 0
4 17 70 0
c gate 71 69 70 0
69 -71 0
70 -71 0
-69 -70 71 0
c gate 72 11 -24 0
11 -72 0
-24 -72 0
-11 24 72 0
c gate 73 -12 25 0
-12 -73 0
25 -73 0
12 -25 73 0
c gate 74 72 73 0
72 -74 0
73 -74 0
-72 -73 74 0
c gate 75 -5 -18 0
-5 -75 0
-18 -75 0
5 18 75 0
c gate 76 54 75 0
54 -76 0
75 -76 0
-54 -75 76 0
c gate 77 -74 -76 0
-74 -77 0
-76 -77 0
74 76 77 0
c gate 78 -71 77 0
-71 -78 0
77 -78 0
71 -77 78 0
c gate 79 -68 78 0
-68 -79 0
78 -79 0
68 -78 79 0
c gate 80 10 -23 0
10 -80 0
-23 -80 0
-10 23 80 0
c gate 81 -42 -80 0
-42 -81 0
-80 -81 0
42 80 81 0
c gate 82 -10 23 0
-10 -82 0
23 -82 0
10 -23 82 0
c gate 83 11 24 0
11 -83 0
24 -83 0
-11 -24 83 0
c gate 84 -11 -24 0
-11 -84 0
-24 -84 0
11 24 84 0
c gate 85 -83 -84 0
-83 -85 0
-84 -85 0
83 84 85 0
c gate 86 -82 -85 0
-82 -86 0
-85 -86 0
82 85 86 0
c gate 87 -81 86 0
-81 -87 0
86 -87 0
81 -86 87 0
c gate 88 12 -25 0
12 -88 0
-25 -88 0
-12 25 88 0
c gate 89 -72 -88 0
-72 -89 0
-88 -89 0
72 88 89 0
c gate 90 -13 26 0
-13 -90 0
26 -90 0
13 -26 90 0
c gate 91 -89 -90 0
-89 -91 0
-90 -91 0
89 90 91 0
c gate 92 13 -26 0
13 -92 0
-26 -92 0
-13 26 92 0
c gate 93 -2 -15 0
-2 -93 0
-15 -93 0
2 15 93 0
c gate 94 2 15 0
2 -94 0
15 -94 0
-2 -15 94 0
c gate 95 -93 -94 0
-93 -95 0
-94 -95 0
93 94 95 0
c gate 96 -92 -95 0
-92 -96 0
-95 -96 0
92 95 96 0
c gate 97 -91 96 0
-91 -97 0
96 -97 0
91 -96 97 0
c gate 98 -87 -97 0
-87 -98 0
-97 -98 0
87 97 98 0
c gate 99 79 98 0
79 -99 0
98 -99 0
-79 -98 99 0
c gate 100 -63 99 0
-63 -100 0
99 -100 0
63 -99 100 0
c gate 101 -64 -84 0
-64 -101 0
-84 -101 0
64 84 101 0
c gate 102 -67 101 0
-67 -102 0
101 -102 0
67 -101 102 0
c gate 103 12 25 0
12 -103 0
25 -103 0
-12 -25 103 0
c gate 104 -83 -103 0
-83 -104 0
-103 -104 0
83 103 104 0
c gate 105 -102 104 0
-102 -105 0
104 -105 0
102 -104 105 0
c gate 106 -12 -25 0
-12 -106 0
-25 -106 0
12 25 106 0
c gate 107 -13 -26 0
-13 -107 0
-26 -107 0
13 26 107 0
c gate 108 -106 -107 0
-106 -108 0
-107 -108 0
106 107 108 0
c gate 109 -105 108 0
-105 -109 0
108 -109 0
105 -108 109 0
c gate 110 13 26 0
13 -110 0
26 -110 0
-13 -26 110 0
c gate 111 -94 -110 0
-94 -111 0
-110 -111 0
94 110 111 0
c gate 112 -109 111 0
-109 -112 0
111 -112 0
109 -111 112 0
c gate 113 -3 -16 0
-3 -113 0
-16 -113 0
3 16 113 0
c gate 114 -69 -93 0
-69 -114 0
-93 -114 0
69 93 114 0
c gate 115 -113 114 0
-113 -115 0
114 -115 0
113 -114 115 0
c gate 116 -112 115 0
-112 -116 0
115 -116 0
112 -115 116 0
c gate 117 -53 75 0
-53 -117 0
75 -117 0
53 -75 117 0
c gate 118 51 117 0
51 -118 0
117 -118 0
-51 -117 118 0
c gate 119 62 118 0
62 -119 0
118 -119 0
-62 -118 119 0
c gate 120 -116 -119 0
-116 -120 0
-119 -120 0
116 119 120 0
c gate 121 100 120 0
100 -121 0
120 -121 0
-100 -120 121 0
c gate 122 -47 121 0
-47 -122 0
121 -122 0
47 -121 122 0
c PO
-122 0
